Instance Name : r104
Date : 2022-07-18
Solution
Route 1 : 53 73 72 74 22 41 2
Route 2 : 94 96 59 93 99 84 17 45 83 60 5 6
Route 3 : 92 98 14 44 38 86 16 61 85 91 100 37
Route 4 : 42 43 15 57 87 97 95 13 40 58
Route 5 : 88 62 11 64 63 90 32 10 31
Route 6 : 27 69 76 79 29 24 68 80 12 26
Route 7 : 21 75 56 23 67 39 55 4 25 54
Route 8 : 18 82 48 46 8 47 36 49 19 7
Route 9 : 1 20 66 65 71 35 34 78 3 77 28
Route 10 : 50 33 81 9 51 30 70 52 89
